# Objective value = 1.9638355422036598e+03
x[0] 1
x[1] 0
x[2] 0
x[3] 1
x[4] 1
x[5] 1
x[6] 1
x[7] 1
x[8] 1
x[9] 0
x[10] 1
x[11] 1
x[12] 0
x[13] 0
x[14] 1
x[15] 0
x[16] 1
x[17] 1
x[18] 1
x[19] 0
x[20] 0
x[21] 1
x[22] 1
x[23] 1
x[24] 0
x[25] 0
x[26] 1
x[27] 0
x[28] 0
x[29] 1
x[30] 1
x[31] 0
x[32] 0
x[33] 1
x[34] 1
x[35] 1
x[36] 1
x[37] 1
x[38] 0
x[39] 1
x[40] 0
x[41] 0
x[42] 1
x[43] 0
x[44] 0
x[45] 1
x[46] 1
x[47] 1
x[48] 1
x[49] 0
x[50] 1
x[51] 0
x[52] 0
x[53] 1
x[54] 0
x[55] 0
x[56] 1
x[57] 1
x[58] 1
x[59] 0
x[60] 1
x[61] 1
x[62] 0
x[63] 1
x[64] 1
x[65] 1
x[66] 0
x[67] 1
x[68] 0
x[69] 0
x[70] 0
x[71] 0
x[72] 1
x[73] 0
x[74] 1
x[75] 1
x[76] 1
x[77] 1
x[78] 1
x[79] 1
x[80] 0
x[81] 0
x[82] 1
x[83] 1
x[84] 1
x[85] 0
x[86] 1
x[87] 1
x[88] 1
x[89] 1
x[90] 1
x[91] 0
x[92] 1
x[93] 1
x[94] 1
x[95] 0
x[96] 1
x[97] 0
x[98] 0
x[99] 0
x[100] 1
x[101] 0
x[102] 1
x[103] 1
x[104] 1
x[105] 0
x[106] 1
x[107] 1
x[108] 0
x[109] 0
x[110] 0
x[111] 1
x[112] 1
x[113] 1
x[114] 0
x[115] 0
x[116] 1
x[117] 1
x[118] 0
x[119] 1
x[120] 1
x[121] 1
x[122] 1
x[123] 0
x[124] 0
x[125] 0
x[126] 0
x[127] 1
x[128] 1
x[129] 0
x[130] 0
x[131] 0
x[132] 0
x[133] 1
x[134] 1
x[135] 1
x[136] 1
x[137] 1
x[138] 1
x[139] 1
x[140] 0
x[141] 1
x[142] 0
x[143] 0
x[144] 1
x[145] 1
x[146] 1
x[147] 1
x[148] 0
x[149] 1
x[150] 1
x[151] 1
x[152] 0
x[153] 0
x[154] 1
x[155] 0
x[156] 1
x[157] 1
x[158] 1
x[159] 1
x[160] 0
x[161] 1
x[162] 0
x[163] 0
x[164] 1
x[165] 1
x[166] 1
x[167] 1
x[168] 0
x[169] 1
x[170] 0
x[171] 1
x[172] 0
x[173] 1
x[174] 0
x[175] 0
x[176] 0
x[177] 1
x[178] 1
x[179] 0
x[180] 1
x[181] 0
x[182] 0
x[183] 0
x[184] 1
x[185] 0
x[186] 0
x[187] 0
x[188] 0
x[189] 0
x[190] 0
x[191] 1
x[192] 1
x[193] 0
x[194] 0
x[195] 0
x[196] 1
x[197] 1
x[198] 0
x[199] 1
x[200] 0
x[201] 1
x[202] 1
x[203] 0
x[204] 0
x[205] 0
x[206] 0
x[207] 0
x[208] 1
x[209] 0
x[210] 0
x[211] 0
x[212] 1
x[213] 1
x[214] 1
x[215] 1
x[216] 0
x[217] 1
x[218] 1
x[219] 0
x[220] 1
x[221] 1
x[222] 1
x[223] 0
x[224] 0
x[225] 1
x[226] 0
x[227] 1
x[228] 1
x[229] 0
x[230] 0
x[231] 1
x[232] 0
x[233] 1
x[234] 1
x[235] 1
x[236] 1
x[237] 1
x[238] 0
x[239] 1
x[240] 0
x[241] 1
x[242] 0
x[243] 1
x[244] 0
x[245] 0
x[246] 0
x[247] 0
x[248] 1
x[249] 0
x[250] 1
x[251] 1
x[252] 0
x[253] 1
x[254] 1
x[255] 0
x[256] 1
x[257] 1
x[258] 1
x[259] 0
x[260] 0
x[261] 1
x[262] 0
x[263] 1
x[264] 1
x[265] 0
x[266] 1
x[267] 0
x[268] 1
x[269] 0
x[270] 0
x[271] 0
x[272] 0
x[273] 1
x[274] 0
x[275] 1
x[276] 0
x[277] 0
x[278] 1
x[279] 1
x[280] 1
x[281] 0
x[282] 0
x[283] 1
x[284] 0
x[285] 1
x[286] 1
x[287] 1
x[288] 0
x[289] 1
x[290] 0
x[291] 0
x[292] 1
x[293] 1
x[294] 1
x[295] 0
x[296] 1
x[297] 0
x[298] 1
x[299] 0
x[300] 0
x[301] 1
x[302] 1
x[303] 1
x[304] 1
x[305] 0
x[306] 1
x[307] 0
x[308] 0
x[309] 1
x[310] 1
x[311] 0
x[312] 0
x[313] 1
x[314] 1
x[315] 1
x[316] 1
x[317] 0
x[318] 1
x[319] 1
x[320] 1
x[321] 1
x[322] 1
x[323] 1
x[324] 1
x[325] 1
x[326] 0
x[327] 1
x[328] 1
x[329] 1
x[330] 0
x[331] 1
x[332] 0
x[333] 1
x[334] 0
x[335] 1
x[336] 1
x[337] 1
x[338] 1
x[339] 1
x[340] 1
x[341] 0
x[342] 0
x[343] 0
x[344] 0
x[345] 0
x[346] 0
x[347] 1
x[348] 1
x[349] 0
x[350] 0
x[351] 1
x[352] 0
x[353] 1
x[354] 0
x[355] 1
x[356] 0
x[357] 0
x[358] 0
x[359] 0
x[360] 0
x[361] 0
x[362] 0
x[363] 0
x[364] 1
x[365] 1
x[366] 0
x[367] 1
x[368] 0
x[369] 1
x[370] 1
x[371] 1
x[372] 1
x[373] 0
x[374] 1
x[375] 0
x[376] 0
x[377] 1
x[378] 1
x[379] 0
x[380] 1
x[381] 1
x[382] 1
x[383] 1
x[384] 1
x[385] 1
x[386] 1
x[387] 1
x[388] 0
x[389] 0
x[390] 1
x[391] 1
x[392] 0
x[393] 1
x[394] 0
x[395] 1
x[396] 1
x[397] 1
x[398] 1
x[399] 1
x[400] 1
x[401] 0
x[402] 0
x[403] 1
x[404] 0
x[405] 1
x[406] 1
x[407] 0
x[408] 0
x[409] 1
x[410] 1
x[411] 0
x[412] 0
x[413] 0
x[414] 1
x[415] 1
x[416] 1
x[417] 0
x[418] 0
x[419] 0
x[420] 1
x[421] 0
x[422] 1
x[423] 0
x[424] 0
x[425] 1
x[426] 1
x[427] 0
x[428] 0
x[429] 1
x[430] 0
x[431] 1
x[432] 1
x[433] 0
x[434] 1
x[435] 1
x[436] 0
x[437] 1
x[438] 0
x[439] 1
x[440] 1
x[441] 1
x[442] 0
x[443] 0
x[444] 1
x[445] 0
x[446] 1
x[447] 1
x[448] 0
x[449] 1
x[450] 1
x[451] 1
x[452] 0
x[453] 1
x[454] 1
x[455] 1
x[456] 0
x[457] 1
x[458] 1
x[459] 0
x[460] 0
x[461] 1
x[462] 0
x[463] 1
x[464] 1
x[465] 1
x[466] 0
x[467] 1
x[468] 0
x[469] 1
x[470] 0
x[471] 0
x[472] 1
x[473] 0
x[474] 1
x[475] 0
x[476] 1
x[477] 1
x[478] 1
x[479] 1
x[480] 1
x[481] 0
x[482] 0
x[483] 1
x[484] 1
x[485] 0
x[486] 0
x[487] 1
x[488] 0
x[489] 1
x[490] 0
x[491] 0
x[492] 1
x[493] 0
x[494] 0
x[495] 0
x[496] 1
x[497] 1
x[498] 0
x[499] 0
x[500] 0
x[501] 1
x[502] 1
x[503] 0
x[504] 1
x[505] 0
x[506] 1
x[507] 1
x[508] 1
x[509] 1
x[510] 1
x[511] 1
x[512] 1
x[513] 1
x[514] 1
x[515] 1
x[516] 0
x[517] 1
x[518] 0
x[519] 1
x[520] 0
x[521] 1
x[522] 1
x[523] 0
x[524] 0
x[525] 1
x[526] 0
x[527] 1
x[528] 1
x[529] 1
x[530] 1
x[531] 1
x[532] 1
x[533] 0
x[534] 0
x[535] 1
x[536] 0
x[537] 0
x[538] 1
x[539] 1
x[540] 1
x[541] 0
x[542] 1
x[543] 0
x[544] 0
x[545] 1
x[546] 1
x[547] 0
x[548] 1
x[549] 0
x[550] 1
x[551] 1
x[552] 1
x[553] 0
x[554] 0
x[555] 0
x[556] 0
x[557] 1
x[558] 0
x[559] 1
x[560] 1
x[561] 1
x[562] 0
x[563] 0
x[564] 0
x[565] 1
x[566] 1
x[567] 0
x[568] 1
x[569] 0
x[570] 1
x[571] 0
x[572] 0
x[573] 0
x[574] 1
x[575] 1
x[576] 0
x[577] 0
x[578] 1
x[579] 0
x[580] 1
x[581] 0
x[582] 1
x[583] 0
x[584] 1
x[585] 1
x[586] 1
x[587] 1
x[588] 1
x[589] 0
x[590] 1
x[591] 1
x[592] 1
x[593] 1
x[594] 1
x[595] 0
x[596] 0
x[597] 0
x[598] 0
x[599] 1
x[600] 1
x[601] 0
x[602] 1
x[603] 0
x[604] 0
x[605] 0
x[606] 1
x[607] 1
x[608] 0
x[609] 0
x[610] 1
x[611] 0
x[612] 0
x[613] 0
x[614] 1
x[615] 1
x[616] 1
x[617] 0
x[618] 0
x[619] 0
x[620] 1
x[621] 1
x[622] 1
x[623] 1
x[624] 0
x[625] 1
x[626] 1
x[627] 0
x[628] 0
x[629] 0
x[630] 0
x[631] 0
x[632] 1
x[633] 1
x[634] 0
x[635] 0
x[636] 1
x[637] 1
x[638] 1
x[639] 1
x[640] 1
x[641] 0
x[642] 0
x[643] 1
x[644] 1
x[645] 0
x[646] 0
x[647] 1
x[648] 1
x[649] 0
x[650] 1
x[651] 0
x[652] 1
x[653] 1
x[654] 1
x[655] 1
x[656] 1
x[657] 0
x[658] 0
x[659] 0
x[660] 0
x[661] 0
x[662] 1
x[663] 1
x[664] 0
x[665] 0
x[666] 0
x[667] 0
x[668] 0
x[669] 1
x[670] 1
x[671] 0
x[672] 1
x[673] 0
x[674] 1
x[675] 1
x[676] 1
x[677] 1
x[678] 1
x[679] 0
x[680] 0
x[681] 1
x[682] 1
x[683] 1
x[684] 0
x[685] 1
x[686] 1
x[687] 1
x[688] 0
x[689] 1
x[690] 0
x[691] 0
x[692] 0
x[693] 0
x[694] 0
x[695] 1
x[696] 0
x[697] 0
x[698] 1
x[699] 0
x[700] 1
x[701] 0
x[702] 1
x[703] 1
x[704] 0
x[705] 1
x[706] 0
x[707] 1
x[708] 0
x[709] 1
x[710] 1
x[711] 1
x[712] 1
x[713] 0
x[714] 0
x[715] 0
x[716] 1
x[717] 1
x[718] 1
x[719] 1
x[720] 1
x[721] 0
x[722] 0
x[723] 0
x[724] 0
x[725] 1
x[726] 0
x[727] 0
x[728] 1
x[729] 0
x[730] 1
x[731] 1
x[732] 1
x[733] 1
x[734] 0
x[735] 0
x[736] 1
x[737] 1
x[738] 0
x[739] 0
x[740] 1
x[741] 0
x[742] 1
x[743] 1
x[744] 1
x[745] 0
x[746] 1
x[747] 1
x[748] 0
x[749] 1
x[750] 1
x[751] 0
x[752] 0
x[753] 0
x[754] 1
x[755] 1
x[756] 0
x[757] 0
x[758] 1
x[759] 1
x[760] 1
x[761] 0
x[762] 0
x[763] 0
x[764] 1
x[765] 0
x[766] 1
x[767] 1
x[768] 1
x[769] 1
x[770] 1
x[771] 1
x[772] 0
x[773] 0
x[774] 1
x[775] 0
x[776] 1
x[777] 0
x[778] 0
x[779] 0
x[780] 1
x[781] 0
x[782] 0
x[783] 0
x[784] 1
x[785] 1
x[786] 1
x[787] 1
x[788] 0
x[789] 0
x[790] 1
x[791] 1
x[792] 0
x[793] 1
x[794] 0
x[795] 1
x[796] 0
x[797] 1
x[798] 1
x[799] 1
x[800] 1
x[801] 1
x[802] 0
x[803] 1
x[804] 1
x[805] 1
x[806] 0
x[807] 1
x[808] 1
x[809] 1
x[810] 1
x[811] 1
x[812] 0
x[813] 0
x[814] 1
x[815] 0
x[816] 0
x[817] 0
x[818] 1
x[819] 1
x[820] 0
x[821] 0
x[822] 0
x[823] 0
x[824] 1
x[825] 0
x[826] 0
x[827] 1
x[828] 0
x[829] 0
x[830] 1
x[831] 1
x[832] 1
x[833] 1
x[834] 0
x[835] 1
x[836] 0
x[837] 0
x[838] 1
x[839] 1
x[840] 0
x[841] 0
x[842] 0
x[843] 0
x[844] 1
x[845] 1
x[846] 0
x[847] 0
x[848] 1
x[849] 1
x[850] 1
x[851] 0
x[852] 1
x[853] 0
x[854] 1
x[855] 1
x[856] 0
x[857] 1
x[858] 1
x[859] 0
x[860] 1
x[861] 1
x[862] 0
x[863] 1
x[864] 1
x[865] 0
x[866] 1
x[867] 1
x[868] 1
x[869] 0
x[870] 1
x[871] 1
x[872] 1
x[873] 1
x[874] 1
x[875] 1
x[876] 0
x[877] 0
x[878] 0
x[879] 1
x[880] 0
x[881] 1
x[882] 1
x[883] 1
x[884] 0
x[885] 1
x[886] 0
x[887] 1
x[888] 1
x[889] 0
x[890] 0
x[891] 0
x[892] 0
x[893] 0
x[894] 1
x[895] 1
x[896] 1
x[897] 1
x[898] 1
x[899] 0
x[900] 1
x[901] 0
x[902] 1
x[903] 0
x[904] 1
x[905] 0
x[906] 1
x[907] 1
x[908] 0
x[909] 0
x[910] 1
x[911] 0
x[912] 1
x[913] 1
x[914] 1
x[915] 1
x[916] 0
x[917] 1
x[918] 1
x[919] 1
x[920] 0
x[921] 0
x[922] 0
x[923] 1
x[924] 1
x[925] 0
x[926] 1
x[927] 0
x[928] 1
x[929] 1
x[930] 0
x[931] 1
x[932] 1
x[933] 1
x[934] 1
x[935] 1
x[936] 1
x[937] 0
x[938] 0
x[939] 1
x[940] 0
x[941] 0
x[942] 1
x[943] 1
x[944] 1
x[945] 1
x[946] 0
x[947] 0
x[948] 1
x[949] 0
x[950] 1
x[951] 1
x[952] 1
x[953] 0
x[954] 1
x[955] 1
x[956] 1
x[957] 0
x[958] 0
x[959] 1
x[960] 1
x[961] 0
x[962] 1
x[963] 1
x[964] 0
x[965] 0
x[966] 0
x[967] 0
x[968] 1
x[969] 0
x[970] 0
x[971] 1
x[972] 1
x[973] 0
x[974] 1
x[975] 0
x[976] 1
x[977] 0
x[978] 0
x[979] 0
x[980] 1
x[981] 0
x[982] 1
x[983] 1
x[984] 1
x[985] 1
x[986] 1
x[987] 1
x[988] 1
x[989] 1
x[990] 1
x[991] 1
x[992] 1
x[993] 1
x[994] 0
x[995] 0
x[996] 0
x[997] 1
x[998] 0
x[999] 1
